6104,14274,654,1141,2331,23958,21919,6412,12886,17227,8275,7834,2754,3850,21380,10966,24004,13360,11271,23007,13135,13644,20710,20239,8578,7039,18393,23906,18813,6905,703,21463,2785,23431,6880,2864,14171,8996,5675,7686,5145,13886,23180,17854,8117,15327,15305,20420,26101,3150,6953,22661,1553,20956,26062,6768,7981,19783,2050,8690,14840,19934,21022,17548,6262,22492,14074,6104